solution status: optimal solution found
objective value:                                    0
thingy.thingy.chamber[5].first.vpump1.valves[0].vinlet_y                   11 	(obj:0)
thingy.thingy.chamber[5].first.vpump1.valves[0].vinlet_z                   16 	(obj:0)
thingy.thingy.chamber[4].first.vpump1.valves[0].vinlet_y                   12 	(obj:0)
thingy.thingy.chamber[4].first.vpump1.valves[0].vinlet_z                   16 	(obj:0)
thingy.thingy.chamber[7].first.vpump1.valves[0].vinlet_y                   14 	(obj:0)
thingy.thingy.chamber[7].first.vpump1.valves[0].vinlet_z                   18 	(obj:0)
thingy.thingy.chamber[8].first.vpump2.valves[0].vinlet_y                   15 	(obj:0)
thingy.thingy.chamber[8].first.vpump2.valves[0].vinlet_z                   19 	(obj:0)
thingy.thingy.chamber[3].first.vpump1.valves[0].vinlet_y                   10 	(obj:0)
thingy.thingy.chamber[3].first.vpump1.valves[0].vinlet_z                   17 	(obj:0)
thingy.thingy.chamber[7].first.vpump2.valves[0].vinlet_y                   13 	(obj:0)
thingy.thingy.chamber[7].first.vpump2.valves[0].vinlet_z                   18 	(obj:0)
thingy.thingy.chamber[0].first.vpump2.valves[0].vinlet_y                   10 	(obj:0)
thingy.thingy.chamber[0].first.vpump2.valves[0].vinlet_z                   18 	(obj:0)
thingy.thingy.chamber[9].first.vpump1.valves[0].vinlet_y                   14 	(obj:0)
thingy.thingy.chamber[9].first.vpump1.valves[0].vinlet_z                   16 	(obj:0)
thingy.flush_bead_hole_y                           14 	(obj:0)
thingy.flush_bead_hole_z                           19 	(obj:0)
thingy.flush_stage_inlet_hole_y                    16 	(obj:0)
thingy.flush_stage_inlet_hole_z                    16 	(obj:0)
thingy.flush_inlet_pinholes[0].hole_y                   16 	(obj:0)
thingy.flush_inlet_pinholes[0].hole_z                   15 	(obj:0)
thingy.thingy.chamber[2].first.vpump1.valves[0].vinlet_y                   11 	(obj:0)
thingy.thingy.chamber[2].first.vpump1.valves[0].vinlet_z                   19 	(obj:0)
thingy.ctrl_inlet_pinholes[2].hole_y                   16 	(obj:0)
thingy.ctrl_inlet_pinholes[2].hole_z                   18 	(obj:0)
thingy.thingy.chamber[6].first.vpump1.valves[0].vinlet_y                   11 	(obj:0)
thingy.thingy.chamber[6].first.vpump1.valves[0].vinlet_z                   15 	(obj:0)
thingy.ctrl_stage_inlet_hole_y                      8 	(obj:0)
thingy.ctrl_stage_inlet_hole_z                     16 	(obj:0)
thingy.thingy.prep.vin_y                           17 	(obj:0)
thingy.thingy.prep.vin_z                           17 	(obj:0)
thingy.ctrl_inlet_pinholes[3].hole_y                   15 	(obj:0)
thingy.ctrl_inlet_pinholes[3].hole_z                   15 	(obj:0)
thingy.ctrl_inlet_pinholes[4].hole_y                   18 	(obj:0)
thingy.ctrl_inlet_pinholes[4].hole_z                   15 	(obj:0)
thingy.thingy.chamber[5].first.vpump2.valves[0].vinlet_y                   10 	(obj:0)
thingy.thingy.chamber[5].first.vpump2.valves[0].vinlet_z                   16 	(obj:0)
thingy.flush_inlet_pinholes[2].hole_y                   16 	(obj:0)
thingy.flush_inlet_pinholes[2].hole_z                   19 	(obj:0)
thingy.thingy.chamber[4].first.vpump2.valves[0].vinlet_y                   12 	(obj:0)
thingy.thingy.chamber[4].first.vpump2.valves[0].vinlet_z                   15 	(obj:0)
thingy.thingy.chamber[2].first.vpump2.valves[0].vinlet_y                   13 	(obj:0)
thingy.thingy.chamber[2].first.vpump2.valves[0].vinlet_z                   19 	(obj:0)
thingy.flush_inlet_pinholes[3].hole_y                   15 	(obj:0)
thingy.flush_inlet_pinholes[3].hole_z                   16 	(obj:0)
thingy.flush_inlet_pinholes[4].hole_y                   17 	(obj:0)
thingy.flush_inlet_pinholes[4].hole_z                   15 	(obj:0)
thingy.thingy.chamber[8].first.vpump1.valves[0].vinlet_y                   15 	(obj:0)
thingy.thingy.chamber[8].first.vpump1.valves[0].vinlet_z                   17 	(obj:0)
thingy.ctrl_inlet_pinholes[0].hole_y                   16 	(obj:0)
thingy.ctrl_inlet_pinholes[0].hole_z                   17 	(obj:0)
thingy.thingy.chamber[1].first.vpump1.valves[0].vinlet_y                   13 	(obj:0)
thingy.thingy.chamber[1].first.vpump1.valves[0].vinlet_z                   17 	(obj:0)
thingy.ctrl_inlet_pinholes[1].hole_y                   19 	(obj:0)
thingy.ctrl_inlet_pinholes[1].hole_z                   19 	(obj:0)
thingy.ctrl_bead_hole_y                            11 	(obj:0)
thingy.ctrl_bead_hole_z                            18 	(obj:0)
thingy.thingy.chamber[9].first.vpump2.valves[0].vinlet_y                   15 	(obj:0)
thingy.thingy.chamber[9].first.vpump2.valves[0].vinlet_z                   18 	(obj:0)
thingy.thingy.chamber[0].first.vpump1.valves[0].vinlet_y                   12 	(obj:0)
thingy.thingy.chamber[0].first.vpump1.valves[0].vinlet_z                   19 	(obj:0)
thingy.thingy.chamber[6].first.vpump2.valves[0].vinlet_y                   10 	(obj:0)
thingy.thingy.chamber[6].first.vpump2.valves[0].vinlet_z                   15 	(obj:0)
thingy.flush_inlet_pinholes[1].hole_y                   19 	(obj:0)
thingy.flush_inlet_pinholes[1].hole_z                   21 	(obj:0)
thingy.thingy.chamber[3].first.vpump2.valves[0].vinlet_y                   11 	(obj:0)
thingy.thingy.chamber[3].first.vpump2.valves[0].vinlet_z                   17 	(obj:0)
thingy.thingy.chamber[1].first.vpump2.valves[0].vinlet_y                   12 	(obj:0)
thingy.thingy.chamber[1].first.vpump2.valves[0].vinlet_z                   17 	(obj:0)
